35
75
52	3
51	3
50	3
48	2
47	2
46	2
45	4
44	2
42	2
41	2
40	5
39	3
38	3
37	2
36	4
35	1
34	1
33	5
32	4
31	2
30	1
29	8
28	4
27	3
26	4
25	1
24	4
23	2
22	2
21	2
20	2
19	2
18	3
17	4
15	3
